
Gurobi 10.0.0 (win64) logging started Thu Jun 13 12:30:33 2024

Set parameter LogFile to value "C:\Users\ealvarezq\Documents\GitHub\Comillas\Models\JointResearch\05. Models\06.Benchmarking\E.Representative_days_based_on_Line_Benefits_OptModel\RTS24_mod2_ByStages_nc30/openStarNet_RTS24_mod2_ByStages_nc30.log"
Set parameter Method to value 2
Set parameter MIPFocus to value 1
Set parameter Presolve to value 2
Set parameter RINS to value 100
Set parameter MIPGap to value 0.01
Set parameter Threads to value 9
Set parameter TimeLimit to value 259200
Set parameter IterationLimit to value 760000000
Gurobi Optimizer version 10.0.0 build v10.0.0rc2 (win64)

CPU model: Intel(R) Core(TM) i7-8700 CPU @ 3.20GHz, instruction set [SSE2|AVX|AVX2]
Thread count: 6 physical cores, 12 logical processors, using up to 9 threads

Optimize a model with 10653 rows, 7188 columns and 28967 nonzeros
Model fingerprint: 0x19fe2c01
Variable types: 7167 continuous, 21 integer (21 binary)
Coefficient statistics:
  Matrix range     [1e-03, 3e+03]
  Objective range  [1e+00, 1e+00]
  Bounds range     [3e-05, 3e+00]
  RHS range        [3e-05, 3e+00]
Presolve removed 6339 rows and 3623 columns
Presolve time: 0.05s
Presolved: 4314 rows, 3565 columns, 15564 nonzeros
Variable types: 3544 continuous, 21 integer (21 binary)
Found heuristic solution: objective 113.0559833
Root relaxation presolve removed 4 rows and 4 columns
Root relaxation presolved: 4310 rows, 3561 columns, 15556 nonzeros

Root barrier log...

Ordering time: 0.00s

Barrier statistics:
 Dense cols : 21
 AA' NZ     : 2.890e+04
 Factor NZ  : 8.303e+04 (roughly 4 MB of memory)
 Factor Ops : 1.703e+06 (less than 1 second per iteration)
 Threads    : 9

                  Objective                Residual
Iter       Primal          Dual         Primal    Dual     Compl     Time
   0   1.96145396e+06 -1.14100049e+08  1.65e+01 8.91e+02  7.24e+04     0s
   1   5.75601242e+05 -5.08998295e+07  4.80e+00 4.76e-09  1.85e+04     0s
   2   4.41072938e+04 -3.65865471e+07  3.73e-01 1.63e-08  4.52e+03     0s
   3   1.15228690e+04 -4.33406642e+06  4.52e-02 9.34e-10  4.63e+02     0s
   4   6.55247235e+03 -1.24380739e+05  7.91e-04 3.51e-11  1.30e+01     0s
   5   1.89866437e+03 -3.05995215e+04  7.04e-07 6.18e-11  3.23e+00     0s
   6   7.95675663e+02 -7.61742754e+03  4.71e-08 1.82e-11  8.35e-01     0s
   7   3.64716473e+02 -1.94295351e+03  1.05e-08 3.41e-12  2.29e-01     0s
   8   1.74628074e+02 -4.99498402e+02  2.97e-09 7.45e-12  6.69e-02     0s
   9   1.05438191e+02 -1.49706256e+02  1.11e-09 3.78e-12  2.53e-02     0s
  10   6.96853251e+01 -3.07413135e+01  3.88e-10 2.85e-12  9.97e-03     0s
  11   5.65969253e+01  2.61268267e+00  2.00e-10 5.11e-12  5.36e-03     0s
  12   4.93979036e+01  2.31726254e+01  1.08e-10 5.42e-12  2.60e-03     0s
  13   4.53214639e+01  3.01529493e+01  5.69e-11 2.16e-12  1.51e-03     0s
  14   4.45713456e+01  3.68211909e+01  4.85e-11 2.25e-12  7.69e-04     0s
  15   4.42988306e+01  3.77692211e+01  4.51e-11 3.22e-12  6.48e-04     0s
  16   4.26642330e+01  3.84594197e+01  2.54e-11 2.69e-12  4.17e-04     0s
  17   4.13080328e+01  3.96748790e+01  9.74e-12 2.07e-12  1.62e-04     0s
  18   4.08046924e+01  3.99203516e+01  1.90e-11 1.71e-12  8.78e-05     0s
  19   4.06063026e+01  4.01554193e+01  1.54e-11 2.74e-12  4.48e-05     0s
  20   4.05540943e+01  4.03085481e+01  4.49e-11 2.21e-12  2.44e-05     0s
  21   4.05193839e+01  4.03960814e+01  3.28e-11 1.58e-12  1.22e-05     0s
  22   4.04678856e+01  4.04315931e+01  1.95e-11 2.60e-12  3.60e-06     0s
  23   4.04557351e+01  4.04416968e+01  1.04e-11 2.22e-12  1.39e-06     0s
  24   4.04487050e+01  4.04467036e+01  7.44e-11 2.92e-12  1.99e-07     0s
  25   4.04473201e+01  4.04472163e+01  2.11e-10 8.86e-12  1.03e-08     0s
  26   4.04472837e+01  4.04472786e+01  3.61e-10 2.06e-12  5.03e-10     0s
  27   4.04472809e+01  4.04472806e+01  2.74e-11 1.85e-11  3.44e-11     0s
  28   4.04472809e+01  4.04472809e+01  5.08e-09 1.37e-12  1.23e-12     0s

Barrier solved model in 28 iterations and 0.18 seconds (0.16 work units)
Optimal objective 4.04472809e+01


Root relaxation: objective 4.044728e+01, 512 iterations, 0.12 seconds (0.08 work units)

    Nodes    |    Current Node    |     Objective Bounds      |     Work
 Expl Unexpl |  Obj  Depth IntInf | Incumbent    BestBd   Gap | It/Node Time

     0     0   40.44728    0   17  113.05598   40.44728  64.2%     -    0s
     0     0   41.15252    0    8  113.05598   41.15252  63.6%     -    0s
H    0     0                     107.3426186   41.15252  61.7%     -    0s
H    0     0                      97.5948273   41.16353  57.8%     -    0s
     0     0   41.18911    0    8   97.59483   41.18911  57.8%     -    0s
H    0     0                      90.9236255   41.53888  54.3%     -    0s
     0     0   41.53888    0   12   90.92363   41.53888  54.3%     -    0s
     0     0   41.74875    0   10   90.92363   41.74875  54.1%     -    0s
     0     0   41.75859    0   10   90.92363   41.75859  54.1%     -    0s
     0     0   41.76085    0   11   90.92363   41.76085  54.1%     -    0s
     0     0   41.76095    0   11   90.92363   41.76095  54.1%     -    0s
     0     0   42.03957    0   10   90.92363   42.03957  53.8%     -    0s
H    0     0                      88.3664734   42.67433  51.7%     -    0s
H    0     0                      82.3964060   42.67433  48.2%     -    0s
     0     0   42.67433    0   12   82.39641   42.67433  48.2%     -    0s
     0     0   42.73481    0    9   82.39641   42.73481  48.1%     -    0s
     0     0   42.73481    0    9   82.39641   42.73481  48.1%     -    0s
     0     0   42.97766    0   11   82.39641   42.97766  47.8%     -    1s
     0     0   42.97766    0   11   82.39641   42.97766  47.8%     -    1s
H    0     0                      79.8895446   43.34052  45.7%     -    1s
     0     0   43.34052    0    9   79.88954   43.34052  45.7%     -    1s
H    0     0                      67.1613442   43.34052  35.5%     -    2s
     0     2   43.34052    0    9   67.16134   43.34052  35.5%     -    2s
H   14    16                      65.4966546   44.00599  32.8%   199    2s
H   22    25                      63.9457286   44.23710  30.8%   196    2s
    99    93     cutoff    8        63.94573   45.39335  29.0%   229    6s
H  100    93                      63.3043824   45.39335  28.3%   227    6s
H  100    93                      62.8404153   45.39335  27.8%   227    6s
   394   152   52.48204    8    5   62.84042   49.98517  20.5%   192   12s
  1098   205   57.14699    9    8   62.84042   54.55126  13.2%   160   16s
  2194   257     cutoff   12        62.84042   58.37123  7.11%   134   22s
  2470   244     cutoff   15        62.84042   58.89741  6.27%   130   27s

Cutting planes:
  Gomory: 7
  Implied bound: 28
  MIR: 146
  Relax-and-lift: 14

Explored 3544 nodes (397997 simplex iterations) in 28.27 seconds (40.03 work units)
Thread count was 9 (of 12 available processors)

Solution count 10: 62.8404 63.3044 63.9457 ... 97.5948

Optimal solution found (tolerance 1.00e-02)
Best objective 6.284041534812e+01, best bound 6.284041534812e+01, gap 0.0000%

Gurobi 10.0.0 (win64) logging started Thu Jun 13 12:31:03 2024

Set parameter LogFile to value "C:\Users\ealvarezq\Documents\GitHub\Comillas\Models\JointResearch\05. Models\06.Benchmarking\E.Representative_days_based_on_Line_Benefits_OptModel\RTS24_mod2_ByStages_nc30/openStarNet_RTS24_mod2_ByStages_nc30.log"
Set parameter Method to value 2
Set parameter MIPFocus to value 1
Set parameter Presolve to value 2
Set parameter RINS to value 100
Set parameter MIPGap to value 0.01
Set parameter Threads to value 9
Set parameter TimeLimit to value 259200
Set parameter IterationLimit to value 760000000
Gurobi Optimizer version 10.0.0 build v10.0.0rc2 (win64)

CPU model: Intel(R) Core(TM) i7-8700 CPU @ 3.20GHz, instruction set [SSE2|AVX|AVX2]
Thread count: 6 physical cores, 12 logical processors, using up to 9 threads

Optimize a model with 10653 rows, 7167 columns and 26426 nonzeros
Model fingerprint: 0x45b8220d
Coefficient statistics:
  Matrix range     [1e-03, 3e+03]
  Objective range  [1e+00, 1e+00]
  Bounds range     [3e-05, 3e+00]
  RHS range        [3e-05, 3e+01]
Presolve removed 9005 rows and 4144 columns
Presolve time: 0.01s
Presolved: 1648 rows, 3057 columns, 7435 nonzeros

Ordering time: 0.00s

Barrier statistics:
 AA' NZ     : 4.052e+03
 Factor NZ  : 1.450e+04 (roughly 2 MB of memory)
 Factor Ops : 1.919e+05 (less than 1 second per iteration)
 Threads    : 1

                  Objective                Residual
Iter       Primal          Dual         Primal    Dual     Compl     Time
   0   6.57594942e+06 -6.75874089e+07  2.70e+01 5.14e+03  3.68e+05     0s
   1   4.04396699e+05 -6.10272630e+07  1.58e+00 8.73e-11  3.08e+04     0s
   2   9.23239635e+04 -2.46211142e+07  3.66e-01 2.18e-10  7.38e+03     0s
   3   3.58429238e+04 -7.01947831e+06  8.59e-02 1.46e-10  1.62e+03     0s
   4   1.97539391e+04 -1.01160254e+06  2.46e-03 5.09e-11  1.98e+02     0s
   5   8.57341820e+03 -1.96044523e+05  8.34e-07 2.47e-10  3.89e+01     0s
   6   2.41120912e+03 -2.70751601e+04  6.76e-09 2.91e-11  5.61e+00     0s
   7   9.77092785e+02 -6.34662365e+03  2.12e-11 7.53e-12  1.39e+00     0s
   8   3.88324301e+02 -1.27960709e+03  7.49e-12 2.02e-11  3.17e-01     0s
   9   2.73403347e+02 -3.62458822e+02  3.79e-12 5.36e-12  1.21e-01     0s
  10   1.44866484e+02 -1.48227277e+02  5.67e-12 1.59e-11  5.57e-02     0s
  11   1.07773470e+02 -1.07055138e+01  4.73e-12 1.09e-11  2.25e-02     0s
  12   7.80810508e+01  2.99428940e+01  5.81e-12 1.85e-11  9.16e-03     0s
  13   6.73141040e+01  4.42520774e+01  1.06e-11 2.44e-11  4.39e-03     0s
  14   6.39910212e+01  5.80021883e+01  4.15e-12 2.22e-11  1.14e-03     0s
  15   6.32055119e+01  6.16124471e+01  2.00e-11 1.87e-11  3.03e-04     0s
  16   6.29726918e+01  6.24030716e+01  8.54e-12 9.00e-12  1.08e-04     0s
  17   6.28907571e+01  6.26644387e+01  1.30e-11 3.86e-12  4.30e-05     0s
  18   6.28538181e+01  6.27950137e+01  5.68e-12 6.45e-12  1.12e-05     0s
  19   6.28420274e+01  6.28332769e+01  9.78e-12 5.89e-11  1.66e-06     0s
  20   6.28405188e+01  6.28401304e+01  2.50e-10 1.21e-11  7.39e-08     0s
  21   6.28404161e+01  6.28404138e+01  4.00e-10 8.49e-12  4.40e-10     0s
  22   6.28404153e+01  6.28404153e+01  2.80e-11 1.48e-11  1.79e-15     0s

Barrier solved model in 22 iterations and 0.04 seconds (0.04 work units)
Optimal objective 6.28404153e+01

Crossover log...

     351 DPushes remaining with DInf 0.0000000e+00                 0s
       0 DPushes remaining with DInf 0.0000000e+00                 0s

      89 PPushes remaining with PInf 0.0000000e+00                 0s
       0 PPushes remaining with PInf 0.0000000e+00                 0s

  Push phase complete: Pinf 0.0000000e+00, Dinf 6.4978076e-13      0s

Iteration    Objective       Primal Inf.    Dual Inf.      Time
      96    6.2840415e+01   0.000000e+00   0.000000e+00      0s

Use crossover to convert LP symmetric solution to basic solution...
Crossover log...

       0 DPushes remaining with DInf 0.0000000e+00                 0s

      51 PPushes remaining with PInf 0.0000000e+00                 0s
       0 PPushes remaining with PInf 0.0000000e+00                 0s

  Push phase complete: Pinf 0.0000000e+00, Dinf 3.9678059e-13      0s

Iteration    Objective       Primal Inf.    Dual Inf.      Time
     157    6.2840415e+01   0.000000e+00   0.000000e+00      0s

Solved in 157 iterations and 0.07 seconds (0.04 work units)
Optimal objective  6.284041535e+01
